c max 193  194  199  200  201  202  203  204  233  234  235  244  245  246  247  248  249  250  251  252  256  257  261  262 0
c ind 736  743  748  755  762  767  768  771  774  775  778  779  782  783  786  787  790  791  794  795  798  799  802  803  806  809  810  813  814  817  818  819  822  825  826  829  830  833  834  837  838  841  842  844  845  846 0
c This is a CNF SAT formula in the DIMACS CNF format,
c produced with the bc2cnf translator by Tommi Junttila;
c see http://users.ics.aalto.fi/tjunttil/circuits/index.html
c phi_Gamma_det <-> 1
c phi_Gamma <-> 1
c phi_T_feature_det <-> 1
c phi_T_transitions <-> 1
c phi_T_transitions_consistency <-> 1
c phi_T <-> 1
c phi_sim_leaves <-> 1
c phi_sim_transition <-> 1
c phi_sim <-> 1
c FORMULA <-> 1
c pi_1 <-> 2
c pi_0 <-> 133
c tau_1_3_approved_1 <-> 193
c tau_1_3_approved_0 <-> 194
c tau_1_2_approved_1 <-> 199
c tau_1_2_approved_0 <-> 200
c tau_1_1_approved_1 <-> 201
c tau_1_1_approved_0 <-> 202
c tau_1_0_approved_1 <-> 203
c tau_1_0_approved_0 <-> 204
c tau_0_3_approved_1 <-> 233
c tau_0_3_approved_0 <-> 234
c tau_0_3_1 <-> 235
c tau_0_2_approved_1 <-> 244
c tau_0_2_approved_0 <-> 245
c tau_0_2_1 <-> 246
c tau_0_1_approved_1 <-> 247
c tau_0_1_approved_0 <-> 248
c tau_0_1_1 <-> 249
c tau_0_0_approved_1 <-> 250
c tau_0_0_approved_0 <-> 251
c tau_0_0_1 <-> 252
c lam_1_monthly_income <-> 256
c lam_1_age <-> 257
c lam_0_monthly_income <-> 261
c lam_0_age <-> 262
c phi_Gamma_val <-> 730
c age_P7900 <-> 736
c monthly_income_P537900 <-> 743
c monthly_income_P537700 <-> 748
c age_P3200 <-> 755
c monthly_income_P638300 <-> 762
c monthly_income_P638100 <-> 767
c age_P3000 <-> 768
c monthly_income_P978000 <-> 771
c monthly_income_P422300 <-> 774
c age_P4100 <-> 775
c monthly_income_P397000 <-> 778
c age_P3700 <-> 779
c monthly_income_P692900 <-> 782
c age_P3400 <-> 783
c monthly_income_P949800 <-> 786
c age_P4200 <-> 787
c monthly_income_P299000 <-> 790
c age_P4300 <-> 791
c monthly_income_P858000 <-> 794
c age_P6200 <-> 795
c monthly_income_P130200 <-> 798
c age_P3500 <-> 799
c monthly_income_P460200 <-> 802
c age_P2500 <-> 803
c monthly_income_P982900 <-> 806
c monthly_income_P422400 <-> 809
c age_P7700 <-> 810
c monthly_income_P575400 <-> 813
c age_P5700 <-> 814
c pi_approved_0 <-> 817
c approved_P0 <-> 817
c monthly_income_P894100 <-> 818
c age_P2900 <-> 819
c monthly_income_P633100 <-> 822
c monthly_income_P388200 <-> 825
c age_P5300 <-> 826
c monthly_income_P859700 <-> 829
c age_P6400 <-> 830
c monthly_income_P756400 <-> 833
c age_P5900 <-> 834
c monthly_income_P968900 <-> 837
c age_P7500 <-> 838
c monthly_income_P537800 <-> 841
c age_P7800 <-> 842
c pi_approved_1 <-> 844
c approved_P100 <-> 844
c monthly_income_P638200 <-> 845
c age_P3100 <-> 846
p cnf 846 2379
1 0
2 -3 0
2 -23 0
-2 23 3 0
-3 4 0
-3 92 0
3 -92 -4 0
-4 5 0
-4 256 0
4 -256 -5 0
5 -6 0
5 -97 0
-5 97 6 0
6 -7 0
6 -99 0
-6 99 7 0
7 -8 0
7 -101 0
-7 101 8 0
8 -9 0
8 -103 0
-8 103 9 0
9 -10 0
9 -105 0
-9 105 10 0
10 -11 0
10 -107 0
-10 107 11 0
11 -12 0
11 -109 0
-11 109 12 0
12 -13 0
12 -111 0
-12 111 13 0
13 -14 0
13 -65 0
-13 65 14 0
14 -15 0
14 -117 0
-14 117 15 0
15 -16 0
15 -119 0
-15 119 16 0
16 -17 0
16 -67 0
-16 67 17 0
17 -18 0
17 -69 0
-17 69 18 0
18 -19 0
18 -132 0
-18 132 19 0
19 -20 0
19 -73 0
-19 73 20 0
20 -21 0
20 -75 0
-20 75 21 0
21 -22 0
21 -89 0
-21 89 22 0
22 -77 0
22 -124 0
-22 124 77 0
23 -24 0
23 -42 0
-23 42 24 0
-24 25 0
-24 126 0
24 -126 -25 0
-25 26 0
-25 256 0
25 -256 -26 0
26 -27 0
26 -49 0
-26 49 27 0
27 -28 0
27 -51 0
-27 51 28 0
28 -29 0
28 -53 0
-28 53 29 0
29 -30 0
29 -55 0
-29 55 30 0
30 -31 0
30 -57 0
-30 57 31 0
31 -32 0
31 -59 0
-31 59 32 0
32 -33 0
32 -61 0
-32 61 33 0
33 -34 0
33 -63 0
-33 63 34 0
34 -35 0
34 -113 0
-34 113 35 0
35 -36 0
35 -115 0
-35 115 36 0
36 -37 0
36 -121 0
-36 121 37 0
37 -38 0
37 -123 0
-37 123 38 0
38 -39 0
38 -131 0
-38 131 39 0
39 -40 0
39 -71 0
-39 71 40 0
40 -41 0
40 -86 0
-40 86 41 0
41 -78 0
41 -88 0
-41 88 78 0
42 -43 0
42 -79 0
-42 79 43 0
-43 44 0
-43 47 0
43 -47 -44 0
-44 45 0
-44 46 0
44 -46 -45 0
45 193 0
45 -844 0
-45 844 -193 0
46 194 0
46 -817 0
-46 817 -194 0
-47 48 0
-47 257 0
47 -257 -48 0
48 -49 0
48 -50 0
-48 50 49 0
-49 736 0
-49 743 0
49 -743 -736 0
50 -51 0
50 -52 0
-50 52 51 0
-51 736 0
-51 841 0
51 -841 -736 0
52 -53 0
52 -54 0
-52 54 53 0
-53 736 0
-53 748 0
53 -748 -736 0
54 -55 0
54 -56 0
-54 56 55 0
-55 743 0
-55 842 0
55 -842 -743 0
56 -57 0
56 -58 0
-56 58 57 0
-57 748 0
-57 842 0
57 -842 -748 0
58 -59 0
58 -60 0
-58 60 59 0
-59 743 0
-59 810 0
59 -810 -743 0
60 -61 0
60 -62 0
-60 62 61 0
-61 810 0
-61 841 0
61 -841 -810 0
62 -63 0
62 -64 0
-62 64 63 0
-63 748 0
-63 810 0
63 -810 -748 0
64 -65 0
64 -66 0
-64 66 65 0
-65 771 0
-65 838 0
65 -838 -771 0
66 -67 0
66 -68 0
-66 68 67 0
-67 794 0
-67 795 0
67 -795 -794 0
68 -69 0
68 -70 0
-68 70 69 0
-69 806 0
-69 842 0
69 -842 -806 0
70 -71 0
70 -72 0
-70 72 71 0
-71 809 0
-71 810 0
71 -810 -809 0
72 -73 0
72 -74 0
-72 74 73 0
-73 822 0
-73 830 0
73 -830 -822 0
74 -75 0
74 -76 0
-74 76 75 0
-75 829 0
-75 830 0
75 -830 -829 0
76 -77 0
76 -78 0
-76 78 77 0
-77 837 0
-77 838 0
77 -838 -837 0
-78 841 0
-78 842 0
78 -842 -841 0
79 -80 0
79 -90 0
-79 90 80 0
-80 81 0
-80 84 0
80 -84 -81 0
-81 82 0
-81 83 0
81 -83 -82 0
82 199 0
82 -844 0
-82 844 -199 0
83 200 0
83 -817 0
-83 817 -200 0
-84 85 0
-84 257 0
84 -257 -85 0
85 -86 0
85 -87 0
-85 87 86 0
-86 813 0
-86 814 0
86 -814 -813 0
87 -88 0
87 -89 0
-87 89 88 0
-88 825 0
-88 826 0
88 -826 -825 0
-89 833 0
-89 834 0
89 -834 -833 0
90 -91 0
90 -125 0
-90 125 91 0
-91 92 0
-91 95 0
91 -95 -92 0
-92 93 0
-92 94 0
92 -94 -93 0
93 201 0
93 -844 0
-93 844 -201 0
94 202 0
94 -817 0
-94 817 -202 0
-95 96 0
-95 257 0
95 -257 -96 0
96 -97 0
96 -98 0
-96 98 97 0
-97 755 0
-97 762 0
97 -762 -755 0
98 -99 0
98 -100 0
-98 100 99 0
-99 755 0
-99 845 0
99 -845 -755 0
100 -101 0
100 -102 0
-100 102 101 0
-101 755 0
-101 767 0
101 -767 -755 0
102 -103 0
102 -104 0
-102 104 103 0
-103 762 0
-103 846 0
103 -846 -762 0
104 -105 0
104 -106 0
-104 106 105 0
-105 767 0
-105 846 0
105 -846 -767 0
106 -107 0
106 -108 0
-106 108 107 0
-107 762 0
-107 768 0
107 -768 -762 0
108 -109 0
108 -110 0
-108 110 109 0
-109 768 0
-109 845 0
109 -845 -768 0
110 -111 0
110 -112 0
-110 112 111 0
-111 767 0
-111 768 0
111 -768 -767 0
112 -113 0
112 -114 0
-112 114 113 0
-113 774 0
-113 775 0
113 -775 -774 0
114 -115 0
114 -116 0
-114 116 115 0
-115 778 0
-115 779 0
115 -779 -778 0
116 -117 0
116 -118 0
-116 118 117 0
-117 782 0
-117 783 0
117 -783 -782 0
118 -119 0
118 -120 0
-118 120 119 0
-119 786 0
-119 787 0
119 -787 -786 0
120 -121 0
120 -122 0
-120 122 121 0
-121 790 0
-121 791 0
121 -791 -790 0
122 -123 0
122 -124 0
-122 124 123 0
-123 798 0
-123 799 0
123 -799 -798 0
-124 845 0
-124 846 0
124 -846 -845 0
-125 126 0
-125 129 0
125 -129 -126 0
-126 127 0
-126 128 0
126 -128 -127 0
127 203 0
127 -844 0
-127 844 -203 0
128 204 0
128 -817 0
-128 817 -204 0
-129 130 0
-129 257 0
129 -257 -130 0
130 -131 0
130 -132 0
-130 132 131 0
-131 802 0
-131 803 0
131 -803 -802 0
-132 818 0
-132 819 0
132 -819 -818 0
133 -134 0
133 -136 0
-133 136 134 0
133 0
-134 135 0
-134 157 0
134 -157 -135 0
-135 5 0
-135 261 0
135 -261 -5 0
136 -137 0
136 -139 0
-136 139 137 0
-137 138 0
-137 164 0
137 -164 -138 0
-138 26 0
-138 261 0
138 -261 -26 0
139 -140 0
139 -147 0
-139 147 140 0
-140 141 0
-140 146 0
140 -146 -141 0
-141 142 0
-141 143 0
141 -143 -142 0
142 233 0
142 -844 0
-142 844 -233 0
-143 144 0
-143 145 0
143 -145 -144 0
144 234 0
144 -817 0
-144 817 -234 0
145 -2 0
145 235 0
-145 -235 2 0
-146 48 0
-146 262 0
146 -262 -48 0
147 -148 0
147 -155 0
-147 155 148 0
-148 149 0
-148 154 0
148 -154 -149 0
-149 150 0
-149 151 0
149 -151 -150 0
150 244 0
150 -844 0
-150 844 -244 0
-151 152 0
-151 153 0
151 -153 -152 0
152 245 0
152 -817 0
-152 817 -245 0
153 -2 0
153 246 0
-153 -246 2 0
-154 85 0
-154 262 0
154 -262 -85 0
155 -156 0
155 -163 0
-155 163 156 0
-156 157 0
-156 162 0
156 -162 -157 0
-157 158 0
-157 159 0
157 -159 -158 0
158 247 0
158 -844 0
-158 844 -247 0
-159 160 0
-159 161 0
159 -161 -160 0
160 248 0
160 -817 0
-160 817 -248 0
161 -2 0
161 249 0
-161 -249 2 0
-162 96 0
-162 262 0
162 -262 -96 0
-163 164 0
-163 169 0
163 -169 -164 0
-164 165 0
-164 166 0
164 -166 -165 0
165 250 0
165 -844 0
-165 844 -250 0
-166 167 0
-166 168 0
166 -168 -167 0
167 251 0
167 -817 0
-167 817 -251 0
168 -2 0
168 252 0
-168 -252 2 0
-169 130 0
-169 262 0
169 -262 -130 0
170 256 0
170 -171 0
-170 171 -256 0
170 0
-171 -193 0
-171 172 0
171 -172 193 0
-172 -194 0
-172 173 0
172 -173 194 0
-173 -199 0
-173 -200 0
173 200 199 0
174 261 0
174 -175 0
-174 175 -261 0
174 0
-175 -233 0
-175 176 0
175 -176 233 0
-176 -234 0
-176 177 0
176 -177 234 0
-177 -235 0
-177 178 0
177 -178 235 0
-178 -244 0
-178 179 0
178 -179 244 0
-179 -245 0
-179 -246 0
179 246 245 0
180 256 0
180 -181 0
-180 181 -256 0
180 0
-181 182 0
-181 185 0
181 -185 -182 0
182 -183 0
182 -184 0
-182 184 183 0
-183 -202 0
-183 201 0
183 -201 202 0
-184 -201 0
-184 202 0
184 -202 201 0
185 -186 0
185 -187 0
-185 187 186 0
-186 -204 0
-186 203 0
186 -203 204 0
-187 -203 0
-187 204 0
187 -204 203 0
188 257 0
188 -189 0
-188 189 -257 0
188 0
-189 190 0
-189 195 0
189 -195 -190 0
190 -191 0
190 -192 0
-190 192 191 0
-191 -194 0
-191 193 0
191 -193 194 0
-192 -193 0
-192 194 0
192 -194 193 0
-195 181 0
-195 196 0
195 -196 -181 0
196 -197 0
196 -198 0
-196 198 197 0
-197 -200 0
-197 199 0
197 -199 200 0
-198 -199 0
-198 200 0
198 -200 199 0
205 261 0
205 -206 0
-205 206 -261 0
205 0
-206 207 0
-206 215 0
206 -215 -207 0
207 -208 0
207 -213 0
-207 213 208 0
208 -209 0
208 -211 0
-208 211 209 0
-209 210 0
-209 247 0
209 -247 -210 0
-210 -248 0
-210 -249 0
210 249 248 0
-211 212 0
-211 248 0
211 -248 -212 0
-212 -247 0
-212 -249 0
212 249 247 0
-213 214 0
-213 249 0
213 -249 -214 0
-214 -247 0
-214 -248 0
214 248 247 0
215 -216 0
215 -221 0
-215 221 216 0
216 -217 0
216 -219 0
-216 219 217 0
-217 218 0
-217 250 0
217 -250 -218 0
-218 -251 0
-218 -252 0
218 252 251 0
-219 220 0
-219 251 0
219 -251 -220 0
-220 -250 0
-220 -252 0
220 252 250 0
-221 222 0
-221 252 0
221 -252 -222 0
-222 -250 0
-222 -251 0
222 251 250 0
223 262 0
223 -224 0
-223 224 -262 0
223 0
-224 225 0
-224 236 0
224 -236 -225 0
225 -226 0
225 -231 0
-225 231 226 0
226 -227 0
226 -229 0
-226 229 227 0
-227 228 0
-227 233 0
227 -233 -228 0
-228 -234 0
-228 -235 0
228 235 234 0
-229 230 0
-229 234 0
229 -234 -230 0
-230 -233 0
-230 -235 0
230 235 233 0
-231 232 0
-231 235 0
231 -235 -232 0
-232 -233 0
-232 -234 0
232 234 233 0
-236 206 0
-236 237 0
236 -237 -206 0
237 -238 0
237 -242 0
-237 242 238 0
238 -239 0
238 -240 0
-238 240 239 0
-239 179 0
-239 244 0
239 -244 -179 0
-240 241 0
-240 245 0
240 -245 -241 0
-241 -244 0
-241 -246 0
241 246 244 0
-242 243 0
-242 246 0
242 -246 -243 0
-243 -244 0
-243 -245 0
243 245 244 0
253 -254 0
253 -255 0
-253 255 254 0
253 0
-254 -257 0
-254 256 0
254 -256 257 0
-255 -256 0
-255 257 0
255 -257 256 0
258 -259 0
258 -260 0
-258 260 259 0
258 0
-259 -262 0
-259 261 0
259 -261 262 0
-260 -261 0
-260 262 0
260 -262 261 0
263 844 0
263 817 0
-263 -817 -844 0
263 0
264 748 0
264 743 0
-264 -743 -748 0
264 0
265 762 0
265 -266 0
-265 266 -762 0
265 0
-266 -748 0
-266 -743 0
266 743 748 0
267 767 0
267 -268 0
-267 268 -767 0
267 0
-268 -743 0
-268 269 0
268 -269 743 0
-269 -748 0
-269 -762 0
269 762 748 0
270 771 0
270 -271 0
-270 271 -771 0
270 0
-271 -743 0
-271 272 0
271 -272 743 0
-272 -748 0
-272 273 0
272 -273 748 0
-273 -762 0
-273 -767 0
273 767 762 0
274 774 0
274 -275 0
-274 275 -774 0
274 0
-275 -743 0
-275 276 0
275 -276 743 0
-276 -748 0
-276 277 0
276 -277 748 0
-277 -762 0
-277 278 0
277 -278 762 0
-278 -767 0
-278 -771 0
278 771 767 0
279 778 0
279 -280 0
-279 280 -778 0
279 0
-280 -743 0
-280 281 0
280 -281 743 0
-281 -748 0
-281 282 0
281 -282 748 0
-282 -762 0
-282 283 0
282 -283 762 0
-283 -767 0
-283 284 0
283 -284 767 0
-284 -771 0
-284 -774 0
284 774 771 0
285 782 0
285 -286 0
-285 286 -782 0
285 0
-286 -743 0
-286 287 0
286 -287 743 0
-287 -748 0
-287 288 0
287 -288 748 0
-288 -762 0
-288 289 0
288 -289 762 0
-289 -767 0
-289 290 0
289 -290 767 0
-290 -771 0
-290 291 0
290 -291 771 0
-291 -774 0
-291 -778 0
291 778 774 0
292 786 0
292 -293 0
-292 293 -786 0
292 0
-293 -743 0
-293 294 0
293 -294 743 0
-294 -748 0
-294 295 0
294 -295 748 0
-295 -762 0
-295 296 0
295 -296 762 0
-296 -767 0
-296 297 0
296 -297 767 0
-297 -771 0
-297 298 0
297 -298 771 0
-298 -774 0
-298 299 0
298 -299 774 0
-299 -778 0
-299 -782 0
299 782 778 0
300 790 0
300 -301 0
-300 301 -790 0
300 0
-301 -743 0
-301 302 0
301 -302 743 0
-302 -748 0
-302 303 0
302 -303 748 0
-303 -762 0
-303 304 0
303 -304 762 0
-304 -767 0
-304 305 0
304 -305 767 0
-305 -771 0
-305 306 0
305 -306 771 0
-306 -774 0
-306 307 0
306 -307 774 0
-307 -778 0
-307 308 0
307 -308 778 0
-308 -782 0
-308 -786 0
308 786 782 0
309 794 0
309 -310 0
-309 310 -794 0
309 0
-310 -743 0
-310 311 0
310 -311 743 0
-311 -748 0
-311 312 0
311 -312 748 0
-312 -762 0
-312 313 0
312 -313 762 0
-313 -767 0
-313 314 0
313 -314 767 0
-314 -771 0
-314 315 0
314 -315 771 0
-315 -774 0
-315 316 0
315 -316 774 0
-316 -778 0
-316 317 0
316 -317 778 0
-317 -782 0
-317 318 0
317 -318 782 0
-318 -786 0
-318 -790 0
318 790 786 0
319 798 0
319 -320 0
-319 320 -798 0
319 0
-320 -743 0
-320 321 0
320 -321 743 0
-321 -748 0
-321 322 0
321 -322 748 0
-322 -762 0
-322 323 0
322 -323 762 0
-323 -767 0
-323 324 0
323 -324 767 0
-324 -771 0
-324 325 0
324 -325 771 0
-325 -774 0
-325 326 0
325 -326 774 0
-326 -778 0
-326 327 0
326 -327 778 0
-327 -782 0
-327 328 0
327 -328 782 0
-328 -786 0
-328 329 0
328 -329 786 0
-329 -790 0
-329 -794 0
329 794 790 0
330 802 0
330 -331 0
-330 331 -802 0
330 0
-331 -743 0
-331 332 0
331 -332 743 0
-332 -748 0
-332 333 0
332 -333 748 0
-333 -762 0
-333 334 0
333 -334 762 0
-334 -767 0
-334 335 0
334 -335 767 0
-335 -771 0
-335 336 0
335 -336 771 0
-336 -774 0
-336 337 0
336 -337 774 0
-337 -778 0
-337 338 0
337 -338 778 0
-338 -782 0
-338 339 0
338 -339 782 0
-339 -786 0
-339 340 0
339 -340 786 0
-340 -790 0
-340 341 0
340 -341 790 0
-341 -794 0
-341 -798 0
341 798 794 0
342 806 0
342 -343 0
-342 343 -806 0
342 0
-343 -743 0
-343 344 0
343 -344 743 0
-344 -748 0
-344 345 0
344 -345 748 0
-345 -762 0
-345 346 0
345 -346 762 0
-346 -767 0
-346 347 0
346 -347 767 0
-347 -771 0
-347 348 0
347 -348 771 0
-348 -774 0
-348 349 0
348 -349 774 0
-349 -778 0
-349 350 0
349 -350 778 0
-350 -782 0
-350 351 0
350 -351 782 0
-351 -786 0
-351 352 0
351 -352 786 0
-352 -790 0
-352 353 0
352 -353 790 0
-353 -794 0
-353 354 0
353 -354 794 0
-354 -798 0
-354 -802 0
354 802 798 0
355 809 0
355 -356 0
-355 356 -809 0
355 0
-356 -743 0
-356 357 0
356 -357 743 0
-357 -748 0
-357 358 0
357 -358 748 0
-358 -762 0
-358 359 0
358 -359 762 0
-359 -767 0
-359 360 0
359 -360 767 0
-360 -771 0
-360 361 0
360 -361 771 0
-361 -774 0
-361 362 0
361 -362 774 0
-362 -778 0
-362 363 0
362 -363 778 0
-363 -782 0
-363 364 0
363 -364 782 0
-364 -786 0
-364 365 0
364 -365 786 0
-365 -790 0
-365 366 0
365 -366 790 0
-366 -794 0
-366 367 0
366 -367 794 0
-367 -798 0
-367 368 0
367 -368 798 0
-368 -802 0
-368 -806 0
368 806 802 0
369 813 0
369 -370 0
-369 370 -813 0
369 0
-370 -743 0
-370 371 0
370 -371 743 0
-371 -748 0
-371 372 0
371 -372 748 0
-372 -762 0
-372 373 0
372 -373 762 0
-373 -767 0
-373 374 0
373 -374 767 0
-374 -771 0
-374 375 0
374 -375 771 0
-375 -774 0
-375 376 0
375 -376 774 0
-376 -778 0
-376 377 0
376 -377 778 0
-377 -782 0
-377 378 0
377 -378 782 0
-378 -786 0
-378 379 0
378 -379 786 0
-379 -790 0
-379 380 0
379 -380 790 0
-380 -794 0
-380 381 0
380 -381 794 0
-381 -798 0
-381 382 0
381 -382 798 0
-382 -802 0
-382 383 0
382 -383 802 0
-383 -806 0
-383 -809 0
383 809 806 0
384 818 0
384 -385 0
-384 385 -818 0
384 0
-385 -743 0
-385 386 0
385 -386 743 0
-386 -748 0
-386 387 0
386 -387 748 0
-387 -762 0
-387 388 0
387 -388 762 0
-388 -767 0
-388 389 0
388 -389 767 0
-389 -771 0
-389 390 0
389 -390 771 0
-390 -774 0
-390 391 0
390 -391 774 0
-391 -778 0
-391 392 0
391 -392 778 0
-392 -782 0
-392 393 0
392 -393 782 0
-393 -786 0
-393 394 0
393 -394 786 0
-394 -790 0
-394 395 0
394 -395 790 0
-395 -794 0
-395 396 0
395 -396 794 0
-396 -798 0
-396 397 0
396 -397 798 0
-397 -802 0
-397 398 0
397 -398 802 0
-398 -806 0
-398 399 0
398 -399 806 0
-399 -809 0
-399 -813 0
399 813 809 0
400 822 0
400 -401 0
-400 401 -822 0
400 0
-401 -743 0
-401 402 0
401 -402 743 0
-402 -748 0
-402 403 0
402 -403 748 0
-403 -762 0
-403 404 0
403 -404 762 0
-404 -767 0
-404 405 0
404 -405 767 0
-405 -771 0
-405 406 0
405 -406 771 0
-406 -774 0
-406 407 0
406 -407 774 0
-407 -778 0
-407 408 0
407 -408 778 0
-408 -782 0
-408 409 0
408 -409 782 0
-409 -786 0
-409 410 0
409 -410 786 0
-410 -790 0
-410 411 0
410 -411 790 0
-411 -794 0
-411 412 0
411 -412 794 0
-412 -798 0
-412 413 0
412 -413 798 0
-413 -802 0
-413 414 0
413 -414 802 0
-414 -806 0
-414 415 0
414 -415 806 0
-415 -809 0
-415 416 0
415 -416 809 0
-416 -813 0
-416 -818 0
416 818 813 0
417 825 0
417 -418 0
-417 418 -825 0
417 0
-418 -743 0
-418 419 0
418 -419 743 0
-419 -748 0
-419 420 0
419 -420 748 0
-420 -762 0
-420 421 0
420 -421 762 0
-421 -767 0
-421 422 0
421 -422 767 0
-422 -771 0
-422 423 0
422 -423 771 0
-423 -774 0
-423 424 0
423 -424 774 0
-424 -778 0
-424 425 0
424 -425 778 0
-425 -782 0
-425 426 0
425 -426 782 0
-426 -786 0
-426 427 0
426 -427 786 0
-427 -790 0
-427 428 0
427 -428 790 0
-428 -794 0
-428 429 0
428 -429 794 0
-429 -798 0
-429 430 0
429 -430 798 0
-430 -802 0
-430 431 0
430 -431 802 0
-431 -806 0
-431 432 0
431 -432 806 0
-432 -809 0
-432 433 0
432 -433 809 0
-433 -813 0
-433 434 0
433 -434 813 0
-434 -818 0
-434 -822 0
434 822 818 0
435 829 0
435 -436 0
-435 436 -829 0
435 0
-436 -743 0
-436 437 0
436 -437 743 0
-437 -748 0
-437 438 0
437 -438 748 0
-438 -762 0
-438 439 0
438 -439 762 0
-439 -767 0
-439 440 0
439 -440 767 0
-440 -771 0
-440 441 0
440 -441 771 0
-441 -774 0
-441 442 0
441 -442 774 0
-442 -778 0
-442 443 0
442 -443 778 0
-443 -782 0
-443 444 0
443 -444 782 0
-444 -786 0
-444 445 0
444 -445 786 0
-445 -790 0
-445 446 0
445 -446 790 0
-446 -794 0
-446 447 0
446 -447 794 0
-447 -798 0
-447 448 0
447 -448 798 0
-448 -802 0
-448 449 0
448 -449 802 0
-449 -806 0
-449 450 0
449 -450 806 0
-450 -809 0
-450 451 0
450 -451 809 0
-451 -813 0
-451 452 0
451 -452 813 0
-452 -818 0
-452 453 0
452 -453 818 0
-453 -822 0
-453 -825 0
453 825 822 0
454 833 0
454 -455 0
-454 455 -833 0
454 0
-455 -743 0
-455 456 0
455 -456 743 0
-456 -748 0
-456 457 0
456 -457 748 0
-457 -762 0
-457 458 0
457 -458 762 0
-458 -767 0
-458 459 0
458 -459 767 0
-459 -771 0
-459 460 0
459 -460 771 0
-460 -774 0
-460 461 0
460 -461 774 0
-461 -778 0
-461 462 0
461 -462 778 0
-462 -782 0
-462 463 0
462 -463 782 0
-463 -786 0
-463 464 0
463 -464 786 0
-464 -790 0
-464 465 0
464 -465 790 0
-465 -794 0
-465 466 0
465 -466 794 0
-466 -798 0
-466 467 0
466 -467 798 0
-467 -802 0
-467 468 0
467 -468 802 0
-468 -806 0
-468 469 0
468 -469 806 0
-469 -809 0
-469 470 0
469 -470 809 0
-470 -813 0
-470 471 0
470 -471 813 0
-471 -818 0
-471 472 0
471 -472 818 0
-472 -822 0
-472 473 0
472 -473 822 0
-473 -825 0
-473 -829 0
473 829 825 0
474 837 0
474 -475 0
-474 475 -837 0
474 0
-475 -743 0
-475 476 0
475 -476 743 0
-476 -748 0
-476 477 0
476 -477 748 0
-477 -762 0
-477 478 0
477 -478 762 0
-478 -767 0
-478 479 0
478 -479 767 0
-479 -771 0
-479 480 0
479 -480 771 0
-480 -774 0
-480 481 0
480 -481 774 0
-481 -778 0
-481 482 0
481 -482 778 0
-482 -782 0
-482 483 0
482 -483 782 0
-483 -786 0
-483 484 0
483 -484 786 0
-484 -790 0
-484 485 0
484 -485 790 0
-485 -794 0
-485 486 0
485 -486 794 0
-486 -798 0
-486 487 0
486 -487 798 0
-487 -802 0
-487 488 0
487 -488 802 0
-488 -806 0
-488 489 0
488 -489 806 0
-489 -809 0
-489 490 0
489 -490 809 0
-490 -813 0
-490 491 0
490 -491 813 0
-491 -818 0
-491 492 0
491 -492 818 0
-492 -822 0
-492 493 0
492 -493 822 0
-493 -825 0
-493 494 0
493 -494 825 0
-494 -829 0
-494 -833 0
494 833 829 0
495 841 0
495 -496 0
-495 496 -841 0
495 0
-496 -743 0
-496 497 0
496 -497 743 0
-497 -748 0
-497 498 0
497 -498 748 0
-498 -762 0
-498 499 0
498 -499 762 0
-499 -767 0
-499 500 0
499 -500 767 0
-500 -771 0
-500 501 0
500 -501 771 0
-501 -774 0
-501 502 0
501 -502 774 0
-502 -778 0
-502 503 0
502 -503 778 0
-503 -782 0
-503 504 0
503 -504 782 0
-504 -786 0
-504 505 0
504 -505 786 0
-505 -790 0
-505 506 0
505 -506 790 0
-506 -794 0
-506 507 0
506 -507 794 0
-507 -798 0
-507 508 0
507 -508 798 0
-508 -802 0
-508 509 0
508 -509 802 0
-509 -806 0
-509 510 0
509 -510 806 0
-510 -809 0
-510 511 0
510 -511 809 0
-511 -813 0
-511 512 0
511 -512 813 0
-512 -818 0
-512 513 0
512 -513 818 0
-513 -822 0
-513 514 0
513 -514 822 0
-514 -825 0
-514 515 0
514 -515 825 0
-515 -829 0
-515 516 0
515 -516 829 0
-516 -833 0
-516 -837 0
516 837 833 0
517 845 0
517 -518 0
-517 518 -845 0
517 0
-518 -743 0
-518 519 0
518 -519 743 0
-519 -748 0
-519 520 0
519 -520 748 0
-520 -762 0
-520 521 0
520 -521 762 0
-521 -767 0
-521 522 0
521 -522 767 0
-522 -771 0
-522 523 0
522 -523 771 0
-523 -774 0
-523 524 0
523 -524 774 0
-524 -778 0
-524 525 0
524 -525 778 0
-525 -782 0
-525 526 0
525 -526 782 0
-526 -786 0
-526 527 0
526 -527 786 0
-527 -790 0
-527 528 0
527 -528 790 0
-528 -794 0
-528 529 0
528 -529 794 0
-529 -798 0
-529 530 0
529 -530 798 0
-530 -802 0
-530 531 0
530 -531 802 0
-531 -806 0
-531 532 0
531 -532 806 0
-532 -809 0
-532 533 0
532 -533 809 0
-533 -813 0
-533 534 0
533 -534 813 0
-534 -818 0
-534 535 0
534 -535 818 0
-535 -822 0
-535 536 0
535 -536 822 0
-536 -825 0
-536 537 0
536 -537 825 0
-537 -829 0
-537 538 0
537 -538 829 0
-538 -833 0
-538 539 0
538 -539 833 0
-539 -837 0
-539 -841 0
539 841 837 0
540 755 0
540 736 0
-540 -736 -755 0
540 0
541 768 0
541 -542 0
-541 542 -768 0
541 0
-542 -755 0
-542 -736 0
542 736 755 0
543 775 0
543 -544 0
-543 544 -775 0
543 0
-544 -736 0
-544 545 0
544 -545 736 0
-545 -755 0
-545 -768 0
545 768 755 0
546 779 0
546 -547 0
-546 547 -779 0
546 0
-547 -736 0
-547 548 0
547 -548 736 0
-548 -755 0
-548 549 0
548 -549 755 0
-549 -768 0
-549 -775 0
549 775 768 0
550 783 0
550 -551 0
-550 551 -783 0
550 0
-551 -736 0
-551 552 0
551 -552 736 0
-552 -755 0
-552 553 0
552 -553 755 0
-553 -768 0
-553 554 0
553 -554 768 0
-554 -775 0
-554 -779 0
554 779 775 0
555 787 0
555 -556 0
-555 556 -787 0
555 0
-556 -736 0
-556 557 0
556 -557 736 0
-557 -755 0
-557 558 0
557 -558 755 0
-558 -768 0
-558 559 0
558 -559 768 0
-559 -775 0
-559 560 0
559 -560 775 0
-560 -779 0
-560 -783 0
560 783 779 0
561 791 0
561 -562 0
-561 562 -791 0
561 0
-562 -736 0
-562 563 0
562 -563 736 0
-563 -755 0
-563 564 0
563 -564 755 0
-564 -768 0
-564 565 0
564 -565 768 0
-565 -775 0
-565 566 0
565 -566 775 0
-566 -779 0
-566 567 0
566 -567 779 0
-567 -783 0
-567 -787 0
567 787 783 0
568 795 0
568 -569 0
-568 569 -795 0
568 0
-569 -736 0
-569 570 0
569 -570 736 0
-570 -755 0
-570 571 0
570 -571 755 0
-571 -768 0
-571 572 0
571 -572 768 0
-572 -775 0
-572 573 0
572 -573 775 0
-573 -779 0
-573 574 0
573 -574 779 0
-574 -783 0
-574 575 0
574 -575 783 0
-575 -787 0
-575 -791 0
575 791 787 0
576 799 0
576 -577 0
-576 577 -799 0
576 0
-577 -736 0
-577 578 0
577 -578 736 0
-578 -755 0
-578 579 0
578 -579 755 0
-579 -768 0
-579 580 0
579 -580 768 0
-580 -775 0
-580 581 0
580 -581 775 0
-581 -779 0
-581 582 0
581 -582 779 0
-582 -783 0
-582 583 0
582 -583 783 0
-583 -787 0
-583 584 0
583 -584 787 0
-584 -791 0
-584 -795 0
584 795 791 0
585 803 0
585 -586 0
-585 586 -803 0
585 0
-586 -736 0
-586 587 0
586 -587 736 0
-587 -755 0
-587 588 0
587 -588 755 0
-588 -768 0
-588 589 0
588 -589 768 0
-589 -775 0
-589 590 0
589 -590 775 0
-590 -779 0
-590 591 0
590 -591 779 0
-591 -783 0
-591 592 0
591 -592 783 0
-592 -787 0
-592 593 0
592 -593 787 0
-593 -791 0
-593 594 0
593 -594 791 0
-594 -795 0
-594 -799 0
594 799 795 0
595 810 0
595 -596 0
-595 596 -810 0
595 0
-596 -736 0
-596 597 0
596 -597 736 0
-597 -755 0
-597 598 0
597 -598 755 0
-598 -768 0
-598 599 0
598 -599 768 0
-599 -775 0
-599 600 0
599 -600 775 0
-600 -779 0
-600 601 0
600 -601 779 0
-601 -783 0
-601 602 0
601 -602 783 0
-602 -787 0
-602 603 0
602 -603 787 0
-603 -791 0
-603 604 0
603 -604 791 0
-604 -795 0
-604 605 0
604 -605 795 0
-605 -799 0
-605 -803 0
605 803 799 0
606 814 0
606 -607 0
-606 607 -814 0
606 0
-607 -736 0
-607 608 0
607 -608 736 0
-608 -755 0
-608 609 0
608 -609 755 0
-609 -768 0
-609 610 0
609 -610 768 0
-610 -775 0
-610 611 0
610 -611 775 0
-611 -779 0
-611 612 0
611 -612 779 0
-612 -783 0
-612 613 0
612 -613 783 0
-613 -787 0
-613 614 0
613 -614 787 0
-614 -791 0
-614 615 0
614 -615 791 0
-615 -795 0
-615 616 0
615 -616 795 0
-616 -799 0
-616 617 0
616 -617 799 0
-617 -803 0
-617 -810 0
617 810 803 0
618 819 0
618 -619 0
-618 619 -819 0
618 0
-619 -736 0
-619 620 0
619 -620 736 0
-620 -755 0
-620 621 0
620 -621 755 0
-621 -768 0
-621 622 0
621 -622 768 0
-622 -775 0
-622 623 0
622 -623 775 0
-623 -779 0
-623 624 0
623 -624 779 0
-624 -783 0
-624 625 0
624 -625 783 0
-625 -787 0
-625 626 0
625 -626 787 0
-626 -791 0
-626 627 0
626 -627 791 0
-627 -795 0
-627 628 0
627 -628 795 0
-628 -799 0
-628 629 0
628 -629 799 0
-629 -803 0
-629 630 0
629 -630 803 0
-630 -810 0
-630 -814 0
630 814 810 0
631 826 0
631 -632 0
-631 632 -826 0
631 0
-632 -736 0
-632 633 0
632 -633 736 0
-633 -755 0
-633 634 0
633 -634 755 0
-634 -768 0
-634 635 0
634 -635 768 0
-635 -775 0
-635 636 0
635 -636 775 0
-636 -779 0
-636 637 0
636 -637 779 0
-637 -783 0
-637 638 0
637 -638 783 0
-638 -787 0
-638 639 0
638 -639 787 0
-639 -791 0
-639 640 0
639 -640 791 0
-640 -795 0
-640 641 0
640 -641 795 0
-641 -799 0
-641 642 0
641 -642 799 0
-642 -803 0
-642 643 0
642 -643 803 0
-643 -810 0
-643 644 0
643 -644 810 0
-644 -814 0
-644 -819 0
644 819 814 0
645 830 0
645 -646 0
-645 646 -830 0
645 0
-646 -736 0
-646 647 0
646 -647 736 0
-647 -755 0
-647 648 0
647 -648 755 0
-648 -768 0
-648 649 0
648 -649 768 0
-649 -775 0
-649 650 0
649 -650 775 0
-650 -779 0
-650 651 0
650 -651 779 0
-651 -783 0
-651 652 0
651 -652 783 0
-652 -787 0
-652 653 0
652 -653 787 0
-653 -791 0
-653 654 0
653 -654 791 0
-654 -795 0
-654 655 0
654 -655 795 0
-655 -799 0
-655 656 0
655 -656 799 0
-656 -803 0
-656 657 0
656 -657 803 0
-657 -810 0
-657 658 0
657 -658 810 0
-658 -814 0
-658 659 0
658 -659 814 0
-659 -819 0
-659 -826 0
659 826 819 0
660 834 0
660 -661 0
-660 661 -834 0
660 0
-661 -736 0
-661 662 0
661 -662 736 0
-662 -755 0
-662 663 0
662 -663 755 0
-663 -768 0
-663 664 0
663 -664 768 0
-664 -775 0
-664 665 0
664 -665 775 0
-665 -779 0
-665 666 0
665 -666 779 0
-666 -783 0
-666 667 0
666 -667 783 0
-667 -787 0
-667 668 0
667 -668 787 0
-668 -791 0
-668 669 0
668 -669 791 0
-669 -795 0
-669 670 0
669 -670 795 0
-670 -799 0
-670 671 0
670 -671 799 0
-671 -803 0
-671 672 0
671 -672 803 0
-672 -810 0
-672 673 0
672 -673 810 0
-673 -814 0
-673 674 0
673 -674 814 0
-674 -819 0
-674 675 0
674 -675 819 0
-675 -826 0
-675 -830 0
675 830 826 0
676 838 0
676 -677 0
-676 677 -838 0
676 0
-677 -736 0
-677 678 0
677 -678 736 0
-678 -755 0
-678 679 0
678 -679 755 0
-679 -768 0
-679 680 0
679 -680 768 0
-680 -775 0
-680 681 0
680 -681 775 0
-681 -779 0
-681 682 0
681 -682 779 0
-682 -783 0
-682 683 0
682 -683 783 0
-683 -787 0
-683 684 0
683 -684 787 0
-684 -791 0
-684 685 0
684 -685 791 0
-685 -795 0
-685 686 0
685 -686 795 0
-686 -799 0
-686 687 0
686 -687 799 0
-687 -803 0
-687 688 0
687 -688 803 0
-688 -810 0
-688 689 0
688 -689 810 0
-689 -814 0
-689 690 0
689 -690 814 0
-690 -819 0
-690 691 0
690 -691 819 0
-691 -826 0
-691 692 0
691 -692 826 0
-692 -830 0
-692 -834 0
692 834 830 0
693 842 0
693 -694 0
-693 694 -842 0
693 0
-694 -736 0
-694 695 0
694 -695 736 0
-695 -755 0
-695 696 0
695 -696 755 0
-696 -768 0
-696 697 0
696 -697 768 0
-697 -775 0
-697 698 0
697 -698 775 0
-698 -779 0
-698 699 0
698 -699 779 0
-699 -783 0
-699 700 0
699 -700 783 0
-700 -787 0
-700 701 0
700 -701 787 0
-701 -791 0
-701 702 0
701 -702 791 0
-702 -795 0
-702 703 0
702 -703 795 0
-703 -799 0
-703 704 0
703 -704 799 0
-704 -803 0
-704 705 0
704 -705 803 0
-705 -810 0
-705 706 0
705 -706 810 0
-706 -814 0
-706 707 0
706 -707 814 0
-707 -819 0
-707 708 0
707 -708 819 0
-708 -826 0
-708 709 0
708 -709 826 0
-709 -830 0
-709 710 0
709 -710 830 0
-710 -834 0
-710 -838 0
710 838 834 0
711 846 0
711 -712 0
-711 712 -846 0
711 0
-712 -736 0
-712 713 0
712 -713 736 0
-713 -755 0
-713 714 0
713 -714 755 0
-714 -768 0
-714 715 0
714 -715 768 0
-715 -775 0
-715 716 0
715 -716 775 0
-716 -779 0
-716 717 0
716 -717 779 0
-717 -783 0
-717 718 0
717 -718 783 0
-718 -787 0
-718 719 0
718 -719 787 0
-719 -791 0
-719 720 0
719 -720 791 0
-720 -795 0
-720 721 0
720 -721 795 0
-721 -799 0
-721 722 0
721 -722 799 0
-722 -803 0
-722 723 0
722 -723 803 0
-723 -810 0
-723 724 0
723 -724 810 0
-724 -814 0
-724 725 0
724 -725 814 0
-725 -819 0
-725 726 0
725 -726 819 0
-726 -826 0
-726 727 0
726 -727 826 0
-727 -830 0
-727 728 0
727 -728 830 0
-728 -834 0
-728 729 0
728 -729 834 0
-729 -838 0
-729 -842 0
729 842 838 0
730 -731 0
730 -732 0
-730 732 731 0
730 0
-731 49 0
-731 844 0
731 -844 -49 0
732 -733 0
732 -734 0
-732 734 733 0
-733 51 0
-733 844 0
733 -844 -51 0
734 -735 0
734 -737 0
-734 737 735 0
-735 53 0
-735 844 0
735 -844 -53 0
737 -738 0
737 -739 0
-737 739 738 0
-738 55 0
-738 844 0
738 -844 -55 0
739 -740 0
739 -741 0
-739 741 740 0
-740 57 0
-740 844 0
740 -844 -57 0
741 -742 0
741 -744 0
-741 744 742 0
-742 59 0
-742 844 0
742 -844 -59 0
744 -745 0
744 -746 0
-744 746 745 0
-745 61 0
-745 844 0
745 -844 -61 0
746 -747 0
746 -749 0
-746 749 747 0
-747 63 0
-747 844 0
747 -844 -63 0
749 -750 0
749 -751 0
-749 751 750 0
-750 97 0
-750 844 0
750 -844 -97 0
751 -752 0
751 -753 0
-751 753 752 0
-752 99 0
-752 844 0
752 -844 -99 0
753 -754 0
753 -756 0
-753 756 754 0
-754 101 0
-754 844 0
754 -844 -101 0
756 -757 0
756 -758 0
-756 758 757 0
-757 103 0
-757 844 0
757 -844 -103 0
758 -759 0
758 -760 0
-758 760 759 0
-759 105 0
-759 844 0
759 -844 -105 0
760 -761 0
760 -763 0
-760 763 761 0
-761 107 0
-761 817 0
761 -817 -107 0
763 -764 0
763 -765 0
-763 765 764 0
-764 109 0
-764 844 0
764 -844 -109 0
765 -766 0
765 -769 0
-765 769 766 0
-766 111 0
-766 844 0
766 -844 -111 0
769 -770 0
769 -772 0
-769 772 770 0
-770 65 0
-770 844 0
770 -844 -65 0
772 -773 0
772 -776 0
-772 776 773 0
-773 113 0
-773 844 0
773 -844 -113 0
776 -777 0
776 -780 0
-776 780 777 0
-777 115 0
-777 844 0
777 -844 -115 0
780 -781 0
780 -784 0
-780 784 781 0
-781 117 0
-781 844 0
781 -844 -117 0
784 -785 0
784 -788 0
-784 788 785 0
-785 119 0
-785 844 0
785 -844 -119 0
788 -789 0
788 -792 0
-788 792 789 0
-789 121 0
-789 844 0
789 -844 -121 0
792 -793 0
792 -796 0
-792 796 793 0
-793 67 0
-793 844 0
793 -844 -67 0
796 -797 0
796 -800 0
-796 800 797 0
-797 123 0
-797 844 0
797 -844 -123 0
800 -801 0
800 -804 0
-800 804 801 0
-801 131 0
-801 817 0
801 -817 -131 0
804 -805 0
804 -807 0
-804 807 805 0
-805 69 0
-805 844 0
805 -844 -69 0
807 -808 0
807 -811 0
-807 811 808 0
-808 71 0
-808 844 0
808 -844 -71 0
811 -812 0
811 -815 0
-811 815 812 0
-812 86 0
-812 844 0
812 -844 -86 0
815 -816 0
815 -820 0
-815 820 816 0
-816 132 0
-816 817 0
816 -817 -132 0
820 -821 0
820 -823 0
-820 823 821 0
-821 73 0
-821 844 0
821 -844 -73 0
823 -824 0
823 -827 0
-823 827 824 0
-824 88 0
-824 844 0
824 -844 -88 0
827 -828 0
827 -831 0
-827 831 828 0
-828 75 0
-828 844 0
828 -844 -75 0
831 -832 0
831 -835 0
-831 835 832 0
-832 89 0
-832 844 0
832 -844 -89 0
835 -836 0
835 -839 0
-835 839 836 0
-836 77 0
-836 844 0
836 -844 -77 0
839 -840 0
839 -843 0
-839 843 840 0
-840 78 0
-840 844 0
840 -844 -78 0
-843 124 0
-843 844 0
843 -844 -124 0
